
Gurobi 11.0.1 (win64) logging started Mon May 13 15:36:33 2024

Set parameter LogFile to value "output/solver_log4.txt"
Gurobi Optimizer version 11.0.1 build v11.0.1rc0 (win64 - Windows 11.0 (22631.2))

CPU model: 11th Gen Intel(R) Core(TM) i7-1165G7 @ 2.80GHz, instruction set [SSE2|AVX|AVX2|AVX512]
Thread count: 4 physical cores, 8 logical processors, using up to 8 threads

Optimize a model with 2230 rows, 433 columns and 41365 nonzeros
Model fingerprint: 0xa532a8a5
Variable types: 248 continuous, 185 integer (185 binary)
Coefficient statistics:
  Matrix range     [4e-01, 1e+05]
  Objective range  [1e+00, 1e+02]
  Bounds range     [1e+00, 1e+00]
  RHS range        [1e-02, 1e+05]

User MIP start produced solution with objective 74944.3 (0.01s)
User MIP start produced solution with objective 74944.3 (0.01s)
Loaded user MIP start with objective 74944.3

Presolve removed 104 rows and 103 columns
Presolve time: 0.05s
Presolved: 2126 rows, 330 columns, 40593 nonzeros
Variable types: 228 continuous, 102 integer (99 binary)

Root relaxation: objective 7.514690e+04, 665 iterations, 0.05 seconds (0.10 work units)

    Nodes    |    Current Node    |     Objective Bounds      |     Work
 Expl Unexpl |  Obj  Depth IntInf | Incumbent    BestBd   Gap | It/Node Time

     0     0 75146.8977    0    3 74944.2747 75146.8977  0.27%     -    0s
H    0     0                    74977.204333 75146.8977  0.23%     -    0s
H    0     0                    75090.327942 75146.8977  0.08%     -    0s

Explored 1 nodes (800 simplex iterations) in 0.35 seconds (0.45 work units)
Thread count was 8 (of 8 available processors)

Solution count 4: 75090.3 75090.3 74977.2 74944.3 

Optimal solution found (tolerance 1.00e-04)
Best objective 7.509032794165e+04, best bound 7.509032794165e+04, gap 0.0000%
